0 1984
1 1984
2 1984
3 1984
4 1901
5 1804
6 1804
7 1699
8 1573
9 1573
10 1573
11 1551
12 1551
13 1521
14 1521
15 1491
16 1439
17 1439
18 1413
19 1397
20 1397
21 1329
22 1329
23 1329
24 1329
25 1329
26 1329
27 1329
28 1322
29 1322
30 1322
31 1322
32 1322
33 1321
34 1321
35 1321
36 1321
37 1291
38 1291
39 1291
40 1291
41 1291
42 1291
43 1291
44 1291
45 1275
46 1275
47 1275
48 1275
49 1253
50 1253
51 1250
52 1250
53 1250
54 1250
55 1216
56 1216
57 1216
58 1216
59 1191
60 1191
61 1172
62 1172
63 1163
64 1163
65 1163
66 1163
67 1163
68 1163
69 1163
70 1163
71 1163
72 1151
73 1151
74 1151
75 1151
76 1151
77 1151
78 1151
79 1151
80 1151
81 1144
82 1144
83 1144
84 1144
85 1144
86 1144
87 1144
88 1144
89 1138
90 1138
91 1138
92 1138
93 1138
94 1138
95 1138
96 1138
97 1138
98 1138
99 1138
100 1138
101 1138
102 1138
103 1138
104 1138
105 1138
106 1138
107 1138
108 1138
109 1138
110 1138
111 1138
112 1138
113 1138
114 1138
115 1138
116 1138
117 1138
118 1138
119 1138
120 1138
121 1138
122 1138
123 1138
124 1138
125 1138
126 1138
127 1138
128 1138
129 1138
130 1138
131 1138
132 1138
133 1138
134 1138
135 1138
136 1128
137 1128
138 1128
139 1128
140 1128
141 1128
142 1128
143 1128
144 1128
145 1128
146 1128
147 1128
148 1128
149 1128
150 1128
151 1128
152 1128
153 1128
154 1128
155 1128
156 1128
157 1128
158 1128
159 1128
160 1128
161 1128
162 1120
163 1120
164 1120
165 1120
166 1120
167 1120
168 1120
169 1120
170 1120
171 1120
172 1120
173 1115
174 1115
175 1115
176 1115
177 1115
178 1115
179 1115
180 1115
181 1115
182 1115
183 1107
184 1107
185 1107
186 1107
187 1107
188 1107
189 1107
190 1107
191 1104
192 1104
193 1104
194 1104
195 1096
196 1096
197 1096
198 1096
199 1096
200 1096
201 1096
202 1096
203 1096
204 1096
205 1096
206 1096
207 1096
208 1096
209 1096
210 1096
211 1096
212 1096
213 1096
214 1096
215 1096
216 1096
217 1096
218 1094
219 1094
220 1094
221 1094
222 1094
223 1094
224 1094
225 1094
226 1094
227 1094
228 1094
229 1091
230 1091
231 1091
232 1089
233 1089
234 1089
235 1089
236 1089
237 1089
238 1089
239 1089
240 1089
241 1089
242 1089
243 1089
244 1089
245 1089
246 1089
247 1089
248 1089
249 1089
250 1088
251 1088
252 1088
253 1088
254 1088
255 1088
256 1088
257 1088
258 1088
259 1088
260 1088
261 1088
262 1088
263 1088
264 1088
265 1087
266 1087
267 1087
268 1087
269 1087
270 1087
271 1085
272 1085
273 1085
274 1085
275 1085
276 1085
277 1085
278 1085
279 1085
280 1085
281 1085
282 1085
283 1085
284 1085
285 1085
286 1085
287 1085
288 1085
289 1085
290 1085
291 1085
292 1085
293 1085
294 1085
295 1085
296 1085
297 1085
298 1085
299 1085
300 1085
301 1085
302 1085
303 1085
304 1085
305 1085
306 1085
307 1085
308 1085
309 1085
310 1085
311 1085
312 1085
313 1085
314 1085
315 1085
316 1085
317 1085
318 1085
319 1085
320 1085
321 1085
322 1085
323 1085
324 1085
325 1085
326 1085
327 1085
328 1085
329 1085
330 1084
331 1084
332 1084
333 1084
334 1084
335 1084
336 1084
337 1084
338 1084
339 1084
340 1084
341 1084
342 1084
343 1084
344 1084
345 1084
346 1084
347 1084
348 1084
349 1084
350 1084
351 1084
352 1084
353 1084
354 1084
355 1084
356 1084
357 1084
358 1078
359 1078
360 1078
361 1078
362 1078
363 1078
364 1078
365 1078
366 1078
367 1078
368 1078
369 1078
370 1078
371 1078
372 1078
373 1078
374 1078
375 1078
376 1078
377 1078
378 1078
379 1073
380 1073
381 1073
382 1073
383 1073
384 1073
385 1073
386 1073
387 1073
388 1073
389 1073
390 1073
391 1073
392 1073
393 1073
394 1073
395 1073
396 1073
397 1073
398 1073
399 1073
400 1073
401 1073
402 1073
403 1073
404 1073
405 1073
406 1073
407 1073
408 1073
409 1073
410 1073
411 1073
412 1073
413 1073
414 1073
415 1073
416 1073
417 1073
418 1073
419 1073
420 1073
421 1073
422 1073
423 1073
424 1073
425 1073
426 1073
427 1073
428 1073
429 1073
430 1073
431 1073
432 1073
433 1073
434 1049
435 1049
436 1049
437 1049
438 1049
439 1049
440 1049
441 1049
442 1049
443 1049
444 1049
445 1049
446 1049
447 1049
448 1049
449 1049
450 1049
451 1049
452 1049
453 1049
454 1049
455 1049
456 1049
457 1049
458 1049
459 1049
460 1049
461 1049
462 1048
463 1048
464 1048
465 1048
466 1048
467 1048
468 1048
469 1048
470 1048
471 1048
472 1048
473 1048
474 1048
475 1048
476 1048
477 1048
478 1048
479 1048
480 1048
481 1048
482 1048
483 1048
484 1048
485 1048
486 1048
487 1048
488 1048
489 1048
490 1048
491 1045
492 1045
493 1045
494 1045
495 1045
496 1045
497 1045
498 1045
499 1045
500 1045
501 1045
502 1045
503 1025
504 1025
505 1025
506 1025
507 1025
508 1025
509 1025
510 1025
511 1025
512 1025
513 1025
514 1025
515 1025
516 1025
517 1025
518 1025
519 1025
520 1025
521 1025
522 1025
523 1025
524 1025
525 1025
526 1025
527 1025
528 1025
529 1025
530 1025
531 1025
532 1025
533 1025
534 1025
535 1025
536 1025
537 1025
538 1025
539 1025
540 1025
541 1025
542 1025
543 1025
544 1025
545 1025
546 1025
547 1025
548 1025
549 1025
550 1025
551 1025
552 1025
553 1025
554 1025
555 1025
556 1025
557 1025
558 1025
559 1025
560 1025
561 1025
562 1025
563 1022
564 1022
565 1022
566 1022
567 1022
568 1022
569 1022
570 1022
571 1022
572 1022
573 1022
574 1022
575 1022
576 1022
577 1022
578 1022
579 1022
580 1022
581 1022
582 1022
583 1022
584 1022
585 1022
586 1022
587 1022
588 1022
589 1022
590 1022
591 1022
592 1022
593 1022
594 1022
595 1022
596 1022
597 1022
598 1022
599 1022
600 1022
601 1022
602 1022
603 1022
604 1022
605 1022
606 1022
607 1022
608 1022
609 1022
610 1022
611 1022
612 1022
613 1022
614 1022
615 1022
616 1022
617 1022
618 1022
619 1022
620 1022
621 1022
622 1022
623 1022
624 1022
625 1022
626 1022
627 1022
628 1022
629 1022
630 1022
631 1022
632 1022
633 1022
634 1022
635 1022
636 1022
637 1022
638 1022
639 1022
640 1022
641 1022
642 1022
643 1022
644 1022
645 1022
646 1022
647 1022
648 1022
649 1022
650 1022
651 1022
652 1022
653 1022
654 1022
655 1022
656 1022
657 1022
658 1022
659 1022
660 1022
661 1022
662 1022
663 1022
664 1022
665 1022
666 1022
667 1022
668 1022
669 1022
670 1022
671 1022
672 1022
673 1022
674 1022
675 1022
676 1022
677 1022
678 1022
679 1022
680 1022
681 1022
682 1022
683 1022
684 1022
685 1022
686 1022
687 1022
688 1022
689 1022
690 1022
691 1022
692 1022
693 1022
694 1022
695 1022
696 1022
697 1020
698 1020
699 1020
700 1020
701 1020
702 1020
703 1020
704 1020
705 1020
706 1015
707 1015
708 1015
709 1015
710 1015
711 1015
712 1015
713 1015
714 1015
715 1015
716 1015
717 1015
718 1015
719 1015
720 1015
721 1015
722 1015
723 1015
724 1015
725 1015
726 1015
727 1015
728 1015
729 1015
730 1015
731 1015
732 1015
733 1015
734 1015
735 1015
736 1015
737 1015
738 1015
739 1015
740 1015
741 1015
742 1015
743 1015
744 1015
745 1015
746 1015
747 1015
748 1015
749 1015
750 1015
751 1015
752 1015
753 1015
754 1015
755 1015
756 1014
757 1014
758 1014
759 1014
760 1014
761 1014
762 1014
763 1014
764 1014
765 1014
766 1014
767 1014
768 1014
769 1014
770 1014
771 1014
772 1014
773 1014
774 1014
775 1014
776 1014
777 1014
778 1014
779 1014
780 1014
781 1014
782 1014
783 1014
784 1014
785 1014
786 1014
787 1014
788 1014
789 1014
790 1014
791 1014
792 1014
793 1014
794 1014
795 1014
796 1014
797 1014
798 1014
799 1014
800 1014
801 1014
802 1014
803 1012
804 1012
805 1012
806 1012
807 1012
808 1012
809 1012
810 1012
811 1012
812 1012
813 1012
814 1012
815 1012
816 1012
817 1012
818 1012
819 1012
820 1012
821 1012
822 1012
823 1012
824 1012
825 1012
826 1012
827 1012
828 1012
829 1012
830 1012
831 1012
832 1012
833 1012
834 1012
835 1012
836 1012
837 1012
838 1012
839 1012
840 1012
841 1012
842 1012
843 1012
844 1012
845 1012
846 1012
847 1012
848 1012
849 1012
850 1012
851 1012
852 1012
853 1012
854 1012
855 1012
856 1012
857 1012
858 1012
859 1012
860 1012
861 1012
862 1012
863 1012
864 1012
865 1012
866 1012
867 1012
868 1012
869 1012
870 1012
871 1012
872 1012
873 1012
874 1012
875 1012
876 1012
877 1012
878 1012
879 1012
880 1012
881 1012
882 1012
883 1012
884 1012
885 1012
886 1012
887 1012
888 1012
889 1012
890 1012
891 1012
892 1012
893 1012
894 1012
895 1012
896 1012
897 1012
898 1012
899 1012
900 1012
901 1012
902 1012
903 1012
904 1012
905 1012
906 1012
907 1012
908 1012
909 1012
910 1012
911 1012
912 1012
913 1012
914 1012
915 1012
916 1012
917 1012
918 1012
919 1012
920 1012
921 1012
922 1012
923 1012
924 1012
925 1012
926 1012
927 1012
928 1012
929 1012
930 1012
931 1012
932 1012
933 1012
934 1012
935 1012
936 1012
937 1012
938 1012
939 1012
940 1012
941 1012
942 1012
943 1012
944 1012
945 1012
946 1012
947 1012
948 1012
949 1012
950 1012
951 1012
952 1012
953 1012
954 1012
955 1012
956 1012
957 1012
958 1012
959 1012
960 1012
961 1012
962 1012
963 1012
964 1012
965 1012
966 1012
967 1012
968 1012
969 1012
970 1012
971 1012
972 1012
973 1012
974 1012
975 1012
976 1012
977 1012
978 1007
979 1007
980 1007
981 1007
982 1007
983 1007
984 1007
985 1007
986 1007
987 1007
988 1007
989 1007
990 1007
991 1007
992 1007
993 1007
994 1007
995 1007
996 1007
997 1007
998 1007
999 1007
Best: [[17,13,2,24,9,19,23],
       [30,16,10,12,5,29],
       [7,4,3,31],
       [8,14,18,20,32,22,27],
       [28,25,15,11,26,6,21]], fitness: 1007
